Results/Experiment 1 Results/New Benchmark/RES_20/output_p1_0.25_p2_0.00_n_20_12.txt
solutions: 0 nodes: 0  modelTime: 104  solveTime: 8  totalTime: 114  modelSize: 7358  readTime: 2 matchingSize: 0
